(declare-fun h () String)
(declare-fun g () String)
(declare-fun b () String)
(declare-fun d () String)
(declare-fun f () String)
(declare-fun c () String)
(assert (= (str.++ h "b" f "d" f c) b))
(assert (= "hbf" (str.++ g g "b" c)))
(assert (not (= (str.++ d "fe") "g")))

(check-sat)
